c description: Tseitin formula on , with odd charge
c generator: CNFgen (0.9.0)
c copyright: (C) 2012-2020 Massimo Lauria <massimo.lauria@uniroma1.it>
c url: https://massimolauria.net/cnfgen
c
p cnf 40 258
1 2 3 0
1 -2 -3 0
-1 2 -3 0
-1 -2 3 0
1 4 5 6 -7 0
1 4 5 -6 7 0
1 4 -5 6 7 0
1 4 -5 -6 -7 0
1 -4 5 6 7 0
1 -4 5 -6 -7 0
1 -4 -5 6 -7 0
1 -4 -5 -6 7 0
-1 4 5 6 7 0
-1 4 5 -6 -7 0
-1 4 -5 6 -7 0
-1 4 -5 -6 7 0
-1 -4 5 6 -7 0
-1 -4 5 -6 7 0
-1 -4 -5 6 7 0
-1 -4 -5 -6 -7 0
8 -9 0
-8 9 0
2 8 10 11 12 -13 0
2 8 10 11 -12 13 0
2 8 10 -11 12 13 0
2 8 10 -11 -12 -13 0
2 8 -10 11 12 13 0
2 8 -10 11 -12 -13 0
2 8 -10 -11 12 -13 0
2 8 -10 -11 -12 13 0
2 -8 10 11 12 13 0
2 -8 10 11 -12 -13 0
2 -8 10 -11 12 -13 0
2 -8 10 -11 -12 13 0
2 -8 -10 11 12 -13 0
2 -8 -10 11 -12 13 0
2 -8 -10 -11 12 13 0
2 -8 -10 -11 -12 -13 0
-2 8 10 11 12 13 0
-2 8 10 11 -12 -13 0
-2 8 10 -11 12 -13 0
-2 8 10 -11 -12 13 0
-2 8 -10 11 12 -13 0
-2 8 -10 11 -12 13 0
-2 8 -10 -11 12 13 0
-2 8 -10 -11 -12 -13 0
-2 -8 10 11 12 -13 0
-2 -8 10 11 -12 13 0
-2 -8 10 -11 12 13 0
-2 -8 10 -11 -12 -13 0
-2 -8 -10 11 12 13 0
-2 -8 -10 11 -12 -13 0
-2 -8 -10 -11 12 -13 0
-2 -8 -10 -11 -12 13 0
14 15 16 17 18 -19 0
14 15 16 17 -18 19 0
14 15 16 -17 18 19 0
14 15 16 -17 -18 -19 0
14 15 -16 17 18 19 0
14 15 -16 17 -18 -19 0
14 15 -16 -17 18 -19 0
14 15 -16 -17 -18 19 0
14 -15 16 17 18 19 0
14 -15 16 17 -18 -19 0
14 -15 16 -17 18 -19 0
14 -15 16 -17 -18 19 0
14 -15 -16 17 18 -19 0
14 -15 -16 17 -18 19 0
14 -15 -16 -17 18 19 0
14 -15 -16 -17 -18 -19 0
-14 15 16 17 18 19 0
-14 15 16 17 -18 -19 0
-14 15 16 -17 18 -19 0
-14 15 16 -17 -18 19 0
-14 15 -16 17 18 -19 0
-14 15 -16 17 -18 19 0
-14 15 -16 -17 18 19 0
-14 15 -16 -17 -18 -19 0
-14 -15 16 17 18 -19 0
-14 -15 16 17 -18 19 0
-14 -15 16 -17 18 19 0
-14 -15 16 -17 -18 -19 0
-14 -15 -16 17 18 19 0
-14 -15 -16 17 -18 -19 0
-14 -15 -16 -17 18 -19 0
-14 -15 -16 -17 -18 19 0
4 14 20 21 -22 0
4 14 20 -21 22 0
4 14 -20 21 22 0
4 14 -20 -21 -22 0
4 -14 20 21 22 0
4 -14 20 -21 -22 0
4 -14 -20 21 -22 0
4 -14 -20 -21 22 0
-4 14 20 21 22 0
-4 14 20 -21 -22 0
-4 14 -20 21 -22 0
-4 14 -20 -21 22 0
-4 -14 20 21 -22 0
-4 -14 20 -21 22 0
-4 -14 -20 21 22 0
-4 -14 -20 -21 -22 0
15 23 -24 0
15 -23 24 0
-15 23 24 0
-15 -23 -24 0
5 25 26 -27 0
5 25 -26 27 0
5 -25 26 27 0
5 -25 -26 -27 0
-5 25 26 27 0
-5 25 -26 -27 0
-5 -25 26 -27 0
-5 -25 -26 27 0
10 25 28 29 -30 0
10 25 28 -29 30 0
10 25 -28 29 30 0
10 25 -28 -29 -30 0
10 -25 28 29 30 0
10 -25 28 -29 -30 0
10 -25 -28 29 -30 0
10 -25 -28 -29 30 0
-10 25 28 29 30 0
-10 25 28 -29 -30 0
-10 25 -28 29 -30 0
-10 25 -28 -29 30 0
-10 -25 28 29 -30 0
-10 -25 28 -29 30 0
-10 -25 -28 29 30 0
-10 -25 -28 -29 -30 0
11 16 20 31 32 -33 0
11 16 20 31 -32 33 0
11 16 20 -31 32 33 0
11 16 20 -31 -32 -33 0
11 16 -20 31 32 33 0
11 16 -20 31 -32 -33 0
11 16 -20 -31 32 -33 0
11 16 -20 -31 -32 33 0
11 -16 20 31 32 33 0
11 -16 20 31 -32 -33 0
11 -16 20 -31 32 -33 0
11 -16 20 -31 -32 33 0
11 -16 -20 31 32 -33 0
11 -16 -20 31 -32 33 0
11 -16 -20 -31 32 33 0
11 -16 -20 -31 -32 -33 0
-11 16 20 31 32 33 0
-11 16 20 31 -32 -33 0
-11 16 20 -31 32 -33 0
-11 16 20 -31 -32 33 0
-11 16 -20 31 32 -33 0
-11 16 -20 31 -32 33 0
-11 16 -20 -31 32 33 0
-11 16 -20 -31 -32 -33 0
-11 -16 20 31 32 -33 0
-11 -16 20 31 -32 33 0
-11 -16 20 -31 32 33 0
-11 -16 20 -31 -32 -33 0
-11 -16 -20 31 32 33 0
-11 -16 -20 31 -32 -33 0
-11 -16 -20 -31 32 -33 0
-11 -16 -20 -31 -32 33 0
28 -34 0
-28 34 0
6 12 35 36 -37 0
6 12 35 -36 37 0
6 12 -35 36 37 0
6 12 -35 -36 -37 0
6 -12 35 36 37 0
6 -12 35 -36 -37 0
6 -12 -35 36 -37 0
6 -12 -35 -36 37 0
-6 12 35 36 37 0
-6 12 35 -36 -37 0
-6 12 -35 36 -37 0
-6 12 -35 -36 37 0
-6 -12 35 36 -37 0
-6 -12 35 -36 37 0
-6 -12 -35 36 37 0
-6 -12 -35 -36 -37 0
29 34 35 -38 0
29 34 -35 38 0
29 -34 35 38 0
29 -34 -35 -38 0
-29 34 35 38 0
-29 34 -35 -38 0
-29 -34 35 -38 0
-29 -34 -35 38 0
7 17 21 30 31 -39 0
7 17 21 30 -31 39 0
7 17 21 -30 31 39 0
7 17 21 -30 -31 -39 0
7 17 -21 30 31 39 0
7 17 -21 30 -31 -39 0
7 17 -21 -30 31 -39 0
7 17 -21 -30 -31 39 0
7 -17 21 30 31 39 0
7 -17 21 30 -31 -39 0
7 -17 21 -30 31 -39 0
7 -17 21 -30 -31 39 0
7 -17 -21 30 31 -39 0
7 -17 -21 30 -31 39 0
7 -17 -21 -30 31 39 0
7 -17 -21 -30 -31 -39 0
-7 17 21 30 31 39 0
-7 17 21 30 -31 -39 0
-7 17 21 -30 31 -39 0
-7 17 21 -30 -31 39 0
-7 17 -21 30 31 -39 0
-7 17 -21 30 -31 39 0
-7 17 -21 -30 31 39 0
-7 17 -21 -30 -31 -39 0
-7 -17 21 30 31 -39 0
-7 -17 21 30 -31 39 0
-7 -17 21 -30 31 39 0
-7 -17 21 -30 -31 -39 0
-7 -17 -21 30 31 39 0
-7 -17 -21 30 -31 -39 0
-7 -17 -21 -30 31 -39 0
-7 -17 -21 -30 -31 39 0
23 26 32 -40 0
23 26 -32 40 0
23 -26 32 40 0
23 -26 -32 -40 0
-23 26 32 40 0
-23 26 -32 -40 0
-23 -26 32 -40 0
-23 -26 -32 40 0
13 22 38 -40 0
13 22 -38 40 0
13 -22 38 40 0
13 -22 -38 -40 0
-13 22 38 40 0
-13 22 -38 -40 0
-13 -22 38 -40 0
-13 -22 -38 40 0
18 27 33 36 -39 0
18 27 33 -36 39 0
18 27 -33 36 39 0
18 27 -33 -36 -39 0
18 -27 33 36 39 0
18 -27 33 -36 -39 0
18 -27 -33 36 -39 0
18 -27 -33 -36 39 0
-18 27 33 36 39 0
-18 27 33 -36 -39 0
-18 27 -33 36 -39 0
-18 27 -33 -36 39 0
-18 -27 33 36 -39 0
-18 -27 33 -36 39 0
-18 -27 -33 36 39 0
-18 -27 -33 -36 -39 0
9 24 -37 0
9 -24 37 0
-9 24 37 0
-9 -24 -37 0
3 -19 0
-3 19 0